
Log started (V11.0.0) Wed May 14 14:44:01 2008

Tried aggregator 1 time.
Reduced MIP has 130 rows, 3001 columns, and 6030 nonzeros.
Presolve time =    0.02 sec.
Clique table members: 100.
MIP emphasis: balance optimality and feasibility.
MIP search method: dynamic search.
Parallel mode: none, using 1 thread.
Root relaxation solution time =    0.08 sec.

        Nodes                                         Cuts/
   Node  Left     Objective  IInf  Best Integer     Best Node    ItCnt     Gap

*     0+    0                        10939.0000      334.6119      355   96.94%
*     0+    0                          404.0000      334.6119      355   17.18%
      0     0      335.4895    57      404.0000      Fract: 6      418   16.96%
*     0+    0                          403.0000      335.4895      418   16.75%
      0     0      355.7042    70      403.0000      Cuts: 30     1589   11.74%
      0     0      355.7059    86      403.0000      Cuts: 24     1682   11.74%
      0     0      355.7059    89      403.0000      Cuts: 24     1733   11.74%
*     0+    0                          402.0000      355.7059     1733   11.52%
*     0+    0                          401.0000      355.7059     1733   11.30%
*     0+    0                          400.0000      355.7059     1733   11.07%
      0     2      355.7059    89      400.0000      355.7059     1733   11.07%
    100   101      356.1475    70      400.0000      355.7182     3797   11.07%
    200   179      360.7012    59      400.0000      355.7182    11218   11.07%
    300   253      362.8597    48      400.0000      355.7182    15594   11.07%
    400   318      362.0000    48      400.0000      355.7182    21158   11.07%

Cover cuts applied:  27
Flow cuts applied:  1
Mixed integer rounding cuts applied:  14
Gomory fractional cuts applied:  2

Solution pool: 6 solutions saved.

MIP - Integer optimal solution:  Objective = 4.0000000000e+002
Solution time =    9.86 sec.  Iterations = 25314  Nodes = 491 (377)


Incumbent solution
Variable Name           Solution Value
Cmax                        400.000000
X_1_1                         1.000000
X_2_27                        1.000000
X_3_10                        1.000000
X_4_8                         1.000000
X_5_8                         1.000000
X_6_4                         1.000000
X_7_18                        1.000000
X_8_20                        1.000000
X_9_29                        1.000000
X_10_1                        1.000000
X_11_24                       1.000000
X_12_16                       1.000000
X_13_29                       1.000000
X_14_4                        1.000000
X_15_18                       1.000000
X_16_5                        1.000000
X_17_25                       1.000000
X_18_28                       1.000000
X_19_13                       1.000000
X_20_8                        1.000000
X_21_20                       1.000000
X_22_26                       1.000000
X_23_3                        1.000000
X_24_15                       1.000000
X_25_17                       1.000000
X_26_17                       1.000000
X_27_22                       1.000000
X_28_24                       1.000000
X_29_12                       1.000000
X_30_24                       1.000000
X_31_21                       1.000000
X_32_4                        1.000000
X_33_25                       1.000000
X_34_16                       1.000000
X_35_29                       1.000000
X_36_14                       1.000000
X_37_6                        1.000000
X_38_5                        1.000000
X_39_20                       1.000000
X_40_27                       1.000000
X_41_30                       1.000000
X_42_6                        1.000000
X_43_23                       1.000000
X_44_15                       1.000000
X_45_27                       1.000000
X_46_15                       1.000000
X_47_10                       1.000000
X_48_21                       1.000000
X_49_5                        1.000000
X_50_3                        1.000000
X_51_2                        1.000000
X_52_28                       1.000000
X_53_22                       1.000000
X_54_16                       1.000000
X_55_13                       1.000000
X_56_11                       1.000000
X_57_14                       1.000000
X_58_2                        1.000000
X_59_13                       1.000000
X_60_27                       1.000000
X_61_7                        1.000000
X_62_19                       1.000000
X_63_25                       1.000000
X_64_10                       1.000000
X_65_7                        1.000000
X_66_6                        1.000000
X_67_6                        1.000000
X_68_22                       1.000000
X_69_13                       1.000000
X_70_21                       1.000000
X_71_9                        1.000000
X_72_19                       1.000000
X_73_3                        1.000000
X_74_4                        1.000000
X_75_14                       1.000000
X_76_7                        1.000000
X_77_11                       1.000000
X_78_1                        1.000000
X_79_12                       1.000000
X_80_26                       1.000000
X_81_9                        1.000000
X_82_14                       1.000000
X_83_18                       1.000000
X_84_9                        1.000000
X_85_30                       1.000000
X_86_11                       1.000000
X_87_25                       1.000000
X_88_26                       1.000000
X_89_9                        1.000000
X_90_23                       1.000000
X_91_19                       1.000000
X_92_2                        1.000000
X_93_26                       1.000000
X_94_23                       1.000000
X_95_1                        1.000000
X_96_17                       1.000000
X_97_23                       1.000000
X_98_28                       1.000000
X_99_30                       1.000000
X_100_12                      1.000000
All other variables in the range 1-3001 are 0.
